c s0 1
c sp2 7
c s3 4
c sp3 8
c s2 3
c s1 2
c acc 9
c sp1 6
c sp0 5
p cnf 340 1103
a 1 2 3 4 5 6 7 8 9 0
d 126 1 2 3 4 9 0
d 20 1 2 3 4 9 0
d 14 1 2 3 4 9 0
d 16 1 2 3 4 9 0
d 18 1 2 3 4 9 0
d 37 1 2 3 4 0
d 60 5 6 7 8 0
d 189 5 6 7 8 0
d 23 5 6 7 8 0
d 36 5 6 7 8 0
d 29 1 2 3 4 0
d 24 5 6 7 8 0
d 32 5 6 7 8 0
d 54 5 6 7 8 0
d 28 5 6 7 8 0
d 57 5 6 7 8 0
d 91 1 2 3 4 0
d 132 5 6 7 8 0
d 76 1 2 3 4 0
d 125 1 2 3 4 0
d 201 1 2 3 4 0
d 13 1 2 3 4 0
d 11 1 2 3 4 0
d 88 1 2 3 4 0
d 144 1 2 3 4 0
d 85 1 2 3 4 0
d 156 5 6 7 8 0
d 165 1 2 3 4 0
d 25 1 2 3 4 0
d 53 5 6 7 8 0
d 82 1 2 3 4 0
d 157 1 2 3 4 0
d 152 5 6 7 8 0
d 63 5 6 7 8 0
d 153 1 2 3 4 0
d 151 5 6 7 8 0
d 160 5 6 7 8 0
d 161 1 2 3 4 0
d 33 1 2 3 4 0
d 164 5 6 7 8 0
e 10 12 15 17 19 21 22 26 27 30 31 34 35 38 39 40 41 42 43 44 45 46 47 48 49 50 51 52 55 56 58 59 61 62 64 65 66 67 68 69 70 71 72 73 74 75 77 78 79 80 81 83 84 86 87 89 90 92 93 94 95 96 97 98 99 100 101 102 103 104 105 106 107 108 109 110 111 112 113 114 115 116 117 118 119 120 121 122 123 124 127 128 129 130 131 133 134 135 136 137 138 139 140 141 142 143 145 146 147 148 149 150 154 155 158 159 162 163 166 167 168 169 170 171 172 173 174 175 176 177 178 179 180 181 182 183 184 185 186 187 188 190 191 192 193 194 195 196 197 198 199 200 202 203 204 205 206 207 208 209 210 211 212 213 214 215 216 217 218 219 220 221 222 223 224 225 226 227 228 229 230 231 232 233 234 235 236 237 238 239 240 241 242 243 244 245 246 247 248 249 250 251 252 253 254 255 256 257 258 259 260 261 262 263 264 265 266 267 268 269 270 271 272 273 274 275 276 277 278 279 280 281 282 283 284 285 286 287 288 289 290 291 292 293 294 295 296 297 298 299 300 301 302 303 304 305 306 307 308 309 310 311 312 313 314 315 316 317 318 319 320 321 322 323 324 325 326 327 328 329 330 331 332 333 334 335 336 337 338 339 0
-10 -1 0
-10 -2 0
-10 -3 0
-10 -4 0
10 1 2 3 4 0
10 12 0
-11 12 0
-12 -10 11 0
-15 5 -14 0
-15 -5 14 0
15 5 14 0
15 -5 -14 0
-17 6 -16 0
-17 -6 16 0
17 6 16 0
17 -6 -16 0
-19 7 -18 0
-19 -7 18 0
19 7 18 0
19 -7 -18 0
-21 8 -20 0
-21 -8 20 0
21 8 20 0
21 -8 -20 0
-22 15 0
-22 17 0
-22 19 0
-22 21 0
22 -15 -17 -19 -21 0
-26 24 0
-26 -25 0
26 -24 25 0
-27 24 -25 0
-27 -24 25 0
27 24 25 0
27 -24 -25 0
-30 28 0
-30 -29 0
30 -28 29 0
-31 28 -29 0
-31 -28 29 0
31 28 29 0
31 -28 -29 0
-34 32 0
-34 -33 0
34 -32 33 0
-35 32 -33 0
-35 -32 33 0
35 32 33 0
35 -32 -33 0
-38 36 0
-38 -37 0
38 -36 37 0
-39 35 0
-39 38 0
39 -35 -38 0
-34 40 0
-39 40 0
-40 34 39 0
-41 31 0
-41 40 0
41 -31 -40 0
-30 42 0
-41 42 0
-42 30 41 0
-43 27 0
-43 42 0
43 -27 -42 0
-26 44 0
-43 44 0
-44 26 43 0
-45 23 0
-45 44 0
45 -23 -44 0
22 46 0
-45 46 0
-46 -22 45 0
9 47 0
-46 47 0
-47 -9 46 0
-48 5 -14 0
-48 -5 14 0
48 5 14 0
48 -5 -14 0
-49 6 -16 0
-49 -6 16 0
49 6 16 0
49 -6 -16 0
-50 7 -18 0
-50 -7 18 0
50 7 18 0
50 -7 -18 0
-51 8 -20 0
-51 -8 20 0
51 8 20 0
51 -8 -20 0
-52 48 0
-52 49 0
-52 50 0
-52 51 0
52 -48 -49 -50 -51 0
-55 54 0
-55 -25 0
55 -54 25 0
-56 54 -25 0
-56 -54 25 0
56 54 25 0
56 -54 -25 0
-58 57 0
-58 -29 0
58 -57 29 0
-59 57 -29 0
-59 -57 29 0
59 57 29 0
59 -57 -29 0
-61 60 0
-61 -33 0
61 -60 33 0
-62 60 -33 0
-62 -60 33 0
62 60 33 0
62 -60 -33 0
-64 63 -37 0
-64 -63 37 0
64 63 37 0
64 -63 -37 0
-65 62 0
-65 64 0
65 -62 -64 0
-61 66 0
-65 66 0
-66 61 65 0
-67 59 0
-67 66 0
67 -59 -66 0
-58 68 0
-67 68 0
-68 58 67 0
-69 56 0
-69 68 0
69 -56 -68 0
-55 70 0
-69 70 0
-70 55 69 0
-71 53 0
-71 70 0
71 -53 -70 0
52 72 0
-71 72 0
-72 -52 71 0
-9 73 0
-72 73 0
-73 9 72 0
-74 47 0
-74 73 0
74 -47 -73 0
13 75 0
-74 75 0
-75 -13 74 0
-77 5 -14 0
-77 -5 14 0
77 5 14 0
77 -5 -14 0
-78 6 -16 0
-78 -6 16 0
78 6 16 0
78 -6 -16 0
-79 7 -18 0
-79 -7 18 0
79 7 18 0
79 -7 -18 0
-80 8 -20 0
-80 -8 20 0
80 8 20 0
80 -8 -20 0
-81 77 0
-81 78 0
-81 79 0
-81 80 0
81 -77 -78 -79 -80 0
-83 24 0
-83 -82 0
83 -24 82 0
-84 24 -82 0
-84 -24 82 0
84 24 82 0
84 -24 -82 0
-86 28 0
-86 -85 0
86 -28 85 0
-87 28 -85 0
-87 -28 85 0
87 28 85 0
87 -28 -85 0
-89 32 0
-89 -88 0
89 -32 88 0
-90 32 -88 0
-90 -32 88 0
90 32 88 0
90 -32 -88 0
-92 36 0
-92 -91 0
92 -36 91 0
-93 90 0
-93 92 0
93 -90 -92 0
-89 94 0
-93 94 0
-94 89 93 0
-95 87 0
-95 94 0
95 -87 -94 0
-86 96 0
-95 96 0
-96 86 95 0
-97 84 0
-97 96 0
97 -84 -96 0
-83 98 0
-97 98 0
-98 83 97 0
-99 23 0
-99 98 0
99 -23 -98 0
81 100 0
-99 100 0
-100 -81 99 0
9 101 0
-100 101 0
-101 -9 100 0
-102 5 -14 0
-102 -5 14 0
102 5 14 0
102 -5 -14 0
-103 6 -16 0
-103 -6 16 0
103 6 16 0
103 -6 -16 0
-104 7 -18 0
-104 -7 18 0
104 7 18 0
104 -7 -18 0
-105 8 -20 0
-105 -8 20 0
105 8 20 0
105 -8 -20 0
-106 102 0
-106 103 0
-106 104 0
-106 105 0
106 -102 -103 -104 -105 0
-107 54 0
-107 -82 0
107 -54 82 0
-108 54 -82 0
-108 -54 82 0
108 54 82 0
108 -54 -82 0
-109 57 0
-109 -85 0
109 -57 85 0
-110 57 -85 0
-110 -57 85 0
110 57 85 0
110 -57 -85 0
-111 60 0
-111 -88 0
111 -60 88 0
-112 60 -88 0
-112 -60 88 0
112 60 88 0
112 -60 -88 0
-113 63 -91 0
-113 -63 91 0
113 63 91 0
113 -63 -91 0
-114 112 0
-114 113 0
114 -112 -113 0
-111 115 0
-114 115 0
-115 111 114 0
-116 110 0
-116 115 0
116 -110 -115 0
-109 117 0
-116 117 0
-117 109 116 0
-118 108 0
-118 117 0
118 -108 -117 0
-107 119 0
-118 119 0
-119 107 118 0
-120 53 0
-120 119 0
120 -53 -119 0
106 121 0
-120 121 0
-121 -106 120 0
-9 122 0
-121 122 0
-122 9 121 0
-123 101 0
-123 122 0
123 -101 -122 0
76 124 0
-123 124 0
-124 -76 123 0
-127 5 -14 0
-127 -5 14 0
127 5 14 0
127 -5 -14 0
-128 6 -16 0
-128 -6 16 0
128 6 16 0
128 -6 -16 0
-129 7 -18 0
-129 -7 18 0
129 7 18 0
129 -7 -18 0
-130 8 -20 0
-130 -8 20 0
130 8 20 0
130 -8 -20 0
-131 127 0
-131 128 0
-131 129 0
-131 130 0
131 -127 -128 -129 -130 0
131 133 0
-132 133 0
-133 -131 132 0
-126 134 0
-133 134 0
-134 126 133 0
-135 5 -14 0
-135 -5 14 0
135 5 14 0
135 -5 -14 0
-136 6 -16 0
-136 -6 16 0
136 6 16 0
136 -6 -16 0
-137 7 -18 0
-137 -7 18 0
137 7 18 0
137 -7 -18 0
-138 8 -20 0
-138 -8 20 0
138 8 20 0
138 -8 -20 0
-139 135 0
-139 136 0
-139 137 0
-139 138 0
139 -135 -136 -137 -138 0
139 140 0
-23 140 0
-140 -139 23 0
126 141 0
-140 141 0
-141 -126 140 0
-142 134 0
-142 141 0
142 -134 -141 0
125 143 0
-142 143 0
-143 -125 142 0
-145 -9 0
-145 -126 0
145 9 126 0
-146 5 -14 0
-146 -5 14 0
146 5 14 0
146 -5 -14 0
-147 6 -16 0
-147 -6 16 0
147 6 16 0
147 -6 -16 0
-148 7 -18 0
-148 -7 18 0
148 7 18 0
148 -7 -18 0
-149 8 -20 0
-149 -8 20 0
149 8 20 0
149 -8 -20 0
-150 146 0
-150 147 0
-150 148 0
-150 149 0
150 -146 -147 -148 -149 0
-154 152 0
-154 -153 0
154 -152 153 0
-155 152 -153 0
-155 -152 153 0
155 152 153 0
155 -152 -153 0
-158 156 0
-158 -157 0
158 -156 157 0
-159 156 -157 0
-159 -156 157 0
159 156 157 0
159 -156 -157 0
-162 160 0
-162 -161 0
162 -160 161 0
-163 160 -161 0
-163 -160 161 0
163 160 161 0
163 -160 -161 0
-166 164 0
-166 -165 0
166 -164 165 0
-167 163 0
-167 166 0
167 -163 -166 0
-162 168 0
-167 168 0
-168 162 167 0
-169 159 0
-169 168 0
169 -159 -168 0
-158 170 0
-169 170 0
-170 158 169 0
-171 155 0
-171 170 0
171 -155 -170 0
-154 172 0
-171 172 0
-172 154 171 0
-173 151 0
-173 172 0
173 -151 -172 0
150 174 0
-173 174 0
-174 -150 173 0
145 175 0
-174 175 0
-175 -145 174 0
144 176 0
-175 176 0
-176 -144 175 0
-177 5 -14 0
-177 -5 14 0
177 5 14 0
177 -5 -14 0
-178 6 -16 0
-178 -6 16 0
178 6 16 0
178 -6 -16 0
-179 7 -18 0
-179 -7 18 0
179 7 18 0
179 -7 -18 0
-180 8 -20 0
-180 -8 20 0
180 8 20 0
180 -8 -20 0
-181 177 0
-181 178 0
-181 179 0
-181 180 0
181 -177 -178 -179 -180 0
181 182 0
-132 182 0
-182 -181 132 0
-126 183 0
-182 183 0
-183 126 182 0
-184 5 -14 0
-184 -5 14 0
184 5 14 0
184 -5 -14 0
-185 6 -16 0
-185 -6 16 0
185 6 16 0
185 -6 -16 0
-186 7 -18 0
-186 -7 18 0
186 7 18 0
186 -7 -18 0
-187 8 -20 0
-187 -8 20 0
187 8 20 0
187 -8 -20 0
-188 184 0
-188 185 0
-188 186 0
-188 187 0
188 -184 -185 -186 -187 0
188 190 0
-189 190 0
-190 -188 189 0
-126 191 0
-190 191 0
-191 126 190 0
-192 5 -14 0
-192 -5 14 0
192 5 14 0
192 -5 -14 0
-193 6 -16 0
-193 -6 16 0
193 6 16 0
193 -6 -16 0
-194 7 -18 0
-194 -7 18 0
194 7 18 0
194 -7 -18 0
-195 8 -20 0
-195 -8 20 0
195 8 20 0
195 -8 -20 0
-196 192 0
-196 193 0
-196 194 0
-196 195 0
196 -192 -193 -194 -195 0
196 197 0
-23 197 0
-197 -196 23 0
126 198 0
-197 198 0
-198 -126 197 0
-199 183 0
-199 191 0
-199 198 0
199 -183 -191 -198 0
11 200 0
-199 200 0
-200 -11 199 0
-202 -9 0
-202 -126 0
202 9 126 0
-203 5 -14 0
-203 -5 14 0
203 5 14 0
203 -5 -14 0
-204 6 -16 0
-204 -6 16 0
204 6 16 0
204 -6 -16 0
-205 7 -18 0
-205 -7 18 0
205 7 18 0
205 -7 -18 0
-206 8 -20 0
-206 -8 20 0
206 8 20 0
206 -8 -20 0
-207 203 0
-207 204 0
-207 205 0
-207 206 0
207 -203 -204 -205 -206 0
207 208 0
-151 208 0
-208 -207 151 0
202 209 0
-208 209 0
-209 -202 208 0
-210 5 -14 0
-210 -5 14 0
210 5 14 0
210 -5 -14 0
-211 6 -16 0
-211 -6 16 0
211 6 16 0
211 -6 -16 0
-212 7 -18 0
-212 -7 18 0
212 7 18 0
212 -7 -18 0
-213 8 -20 0
-213 -8 20 0
213 8 20 0
213 -8 -20 0
-214 210 0
-214 211 0
-214 212 0
-214 213 0
214 -210 -211 -212 -213 0
214 215 0
-189 215 0
-215 -214 189 0
-126 216 0
-215 216 0
-216 126 215 0
-217 209 0
-217 216 0
217 -209 -216 0
201 218 0
-217 218 0
-218 -201 217 0
-219 12 0
-219 75 0
-219 124 0
-219 143 0
-219 176 0
-219 200 0
-219 218 0
219 -12 -75 -124 -143 -176 -200 -218 0
-220 1 -5 0
-220 -1 5 0
220 1 5 0
220 -1 -5 0
-221 2 -6 0
-221 -2 6 0
221 2 6 0
221 -2 -6 0
-222 3 -7 0
-222 -3 7 0
222 3 7 0
222 -3 -7 0
-223 4 -8 0
-223 -4 8 0
223 4 8 0
223 -4 -8 0
-224 220 0
-224 221 0
-224 222 0
-224 223 0
224 -220 -221 -222 -223 0
-225 37 -36 0
-225 -37 36 0
225 37 36 0
225 -37 -36 0
224 226 0
-225 226 0
-226 -224 225 0
-227 5 -1 0
-227 -5 1 0
227 5 1 0
227 -5 -1 0
-228 6 -2 0
-228 -6 2 0
228 6 2 0
228 -6 -2 0
-229 7 -3 0
-229 -7 3 0
229 7 3 0
229 -7 -3 0
-230 8 -4 0
-230 -8 4 0
230 8 4 0
230 -8 -4 0
-231 227 0
-231 228 0
-231 229 0
-231 230 0
231 -227 -228 -229 -230 0
-232 60 -88 0
-232 -60 88 0
232 60 88 0
232 -60 -88 0
231 233 0
-232 233 0
-233 -231 232 0
-234 5 -1 0
-234 -5 1 0
234 5 1 0
234 -5 -1 0
-235 6 -2 0
-235 -6 2 0
235 6 2 0
235 -6 -2 0
-236 7 -3 0
-236 -7 3 0
236 7 3 0
236 -7 -3 0
-237 8 -4 0
-237 -8 4 0
237 8 4 0
237 -8 -4 0
-238 234 0
-238 235 0
-238 236 0
-238 237 0
238 -234 -235 -236 -237 0
-239 189 -201 0
-239 -189 201 0
239 189 201 0
239 -189 -201 0
238 240 0
-239 240 0
-240 -238 239 0
-241 5 -1 0
-241 -5 1 0
241 5 1 0
241 -5 -1 0
-242 6 -2 0
-242 -6 2 0
242 6 2 0
242 -6 -2 0
-243 7 -3 0
-243 -7 3 0
243 7 3 0
243 -7 -3 0
-244 8 -4 0
-244 -8 4 0
244 8 4 0
244 -8 -4 0
-245 241 0
-245 242 0
-245 243 0
-245 244 0
245 -241 -242 -243 -244 0
-246 23 -13 0
-246 -23 13 0
246 23 13 0
246 -23 -13 0
245 247 0
-246 247 0
-247 -245 246 0
-248 1 -5 0
-248 -1 5 0
248 1 5 0
248 -1 -5 0
-249 2 -6 0
-249 -2 6 0
249 2 6 0
249 -2 -6 0
-250 3 -7 0
-250 -3 7 0
250 3 7 0
250 -3 -7 0
-251 4 -8 0
-251 -4 8 0
251 4 8 0
251 -4 -8 0
-252 248 0
-252 249 0
-252 250 0
-252 251 0
252 -248 -249 -250 -251 0
-253 29 -28 0
-253 -29 28 0
253 29 28 0
253 -29 -28 0
252 254 0
-253 254 0
-254 -252 253 0
-255 5 -1 0
-255 -5 1 0
255 5 1 0
255 -5 -1 0
-256 6 -2 0
-256 -6 2 0
256 6 2 0
256 -6 -2 0
-257 7 -3 0
-257 -7 3 0
257 7 3 0
257 -7 -3 0
-258 8 -4 0
-258 -8 4 0
258 8 4 0
258 -8 -4 0
-259 255 0
-259 256 0
-259 257 0
-259 258 0
259 -255 -256 -257 -258 0
-260 24 -25 0
-260 -24 25 0
260 24 25 0
260 -24 -25 0
259 261 0
-260 261 0
-261 -259 260 0
-262 5 -1 0
-262 -5 1 0
262 5 1 0
262 -5 -1 0
-263 6 -2 0
-263 -6 2 0
263 6 2 0
263 -6 -2 0
-264 7 -3 0
-264 -7 3 0
264 7 3 0
264 -7 -3 0
-265 8 -4 0
-265 -8 4 0
265 8 4 0
265 -8 -4 0
-266 262 0
-266 263 0
-266 264 0
-266 265 0
266 -262 -263 -264 -265 0
-267 32 -33 0
-267 -32 33 0
267 32 33 0
267 -32 -33 0
266 268 0
-267 268 0
-268 -266 267 0
-269 5 -1 0
-269 -5 1 0
269 5 1 0
269 -5 -1 0
-270 6 -2 0
-270 -6 2 0
270 6 2 0
270 -6 -2 0
-271 7 -3 0
-271 -7 3 0
271 7 3 0
271 -7 -3 0
-272 8 -4 0
-272 -8 4 0
272 8 4 0
272 -8 -4 0
-273 269 0
-273 270 0
-273 271 0
-273 272 0
273 -269 -270 -271 -272 0
-274 54 -82 0
-274 -54 82 0
274 54 82 0
274 -54 -82 0
273 275 0
-274 275 0
-275 -273 274 0
-276 5 -1 0
-276 -5 1 0
276 5 1 0
276 -5 -1 0
-277 6 -2 0
-277 -6 2 0
277 6 2 0
277 -6 -2 0
-278 7 -3 0
-278 -7 3 0
278 7 3 0
278 -7 -3 0
-279 8 -4 0
-279 -8 4 0
279 8 4 0
279 -8 -4 0
-280 276 0
-280 277 0
-280 278 0
-280 279 0
280 -276 -277 -278 -279 0
-281 57 -85 0
-281 -57 85 0
281 57 85 0
281 -57 -85 0
280 282 0
-281 282 0
-282 -280 281 0
-283 1 -5 0
-283 -1 5 0
283 1 5 0
283 -1 -5 0
-284 2 -6 0
-284 -2 6 0
284 2 6 0
284 -2 -6 0
-285 3 -7 0
-285 -3 7 0
285 3 7 0
285 -3 -7 0
-286 4 -8 0
-286 -4 8 0
286 4 8 0
286 -4 -8 0
-287 283 0
-287 284 0
-287 285 0
-287 286 0
287 -283 -284 -285 -286 0
-288 91 -63 0
-288 -91 63 0
288 91 63 0
288 -91 -63 0
287 289 0
-288 289 0
-289 -287 288 0
-290 5 -1 0
-290 -5 1 0
290 5 1 0
290 -5 -1 0
-291 6 -2 0
-291 -6 2 0
291 6 2 0
291 -6 -2 0
-292 7 -3 0
-292 -7 3 0
292 7 3 0
292 -7 -3 0
-293 8 -4 0
-293 -8 4 0
293 8 4 0
293 -8 -4 0
-294 290 0
-294 291 0
-294 292 0
-294 293 0
294 -290 -291 -292 -293 0
-295 132 -125 0
-295 -132 125 0
295 132 125 0
295 -132 -125 0
294 296 0
-295 296 0
-296 -294 295 0
-297 1 -5 0
-297 -1 5 0
297 1 5 0
297 -1 -5 0
-298 2 -6 0
-298 -2 6 0
298 2 6 0
298 -2 -6 0
-299 3 -7 0
-299 -3 7 0
299 3 7 0
299 -3 -7 0
-300 4 -8 0
-300 -4 8 0
300 4 8 0
300 -4 -8 0
-301 297 0
-301 298 0
-301 299 0
-301 300 0
301 -297 -298 -299 -300 0
-302 76 -53 0
-302 -76 53 0
302 76 53 0
302 -76 -53 0
301 303 0
-302 303 0
-303 -301 302 0
-304 1 -5 0
-304 -1 5 0
304 1 5 0
304 -1 -5 0
-305 2 -6 0
-305 -2 6 0
305 2 6 0
305 -2 -6 0
-306 3 -7 0
-306 -3 7 0
306 3 7 0
306 -3 -7 0
-307 4 -8 0
-307 -4 8 0
307 4 8 0
307 -4 -8 0
-308 304 0
-308 305 0
-308 306 0
-308 307 0
308 -304 -305 -306 -307 0
-309 144 -151 0
-309 -144 151 0
309 144 151 0
309 -144 -151 0
308 310 0
-309 310 0
-310 -308 309 0
-311 5 -1 0
-311 -5 1 0
311 5 1 0
311 -5 -1 0
-312 6 -2 0
-312 -6 2 0
312 6 2 0
312 -6 -2 0
-313 7 -3 0
-313 -7 3 0
313 7 3 0
313 -7 -3 0
-314 8 -4 0
-314 -8 4 0
314 8 4 0
314 -8 -4 0
-315 311 0
-315 312 0
-315 313 0
-315 314 0
315 -311 -312 -313 -314 0
-316 156 -157 0
-316 -156 157 0
316 156 157 0
316 -156 -157 0
315 317 0
-316 317 0
-317 -315 316 0
-318 1 -5 0
-318 -1 5 0
318 1 5 0
318 -1 -5 0
-319 2 -6 0
-319 -2 6 0
319 2 6 0
319 -2 -6 0
-320 3 -7 0
-320 -3 7 0
320 3 7 0
320 -3 -7 0
-321 4 -8 0
-321 -4 8 0
321 4 8 0
321 -4 -8 0
-322 318 0
-322 319 0
-322 320 0
-322 321 0
322 -318 -319 -320 -321 0
-323 165 -164 0
-323 -165 164 0
323 165 164 0
323 -165 -164 0
322 324 0
-323 324 0
-324 -322 323 0
-325 5 -1 0
-325 -5 1 0
325 5 1 0
325 -5 -1 0
-326 6 -2 0
-326 -6 2 0
326 6 2 0
326 -6 -2 0
-327 7 -3 0
-327 -7 3 0
327 7 3 0
327 -7 -3 0
-328 8 -4 0
-328 -8 4 0
328 8 4 0
328 -8 -4 0
-329 325 0
-329 326 0
-329 327 0
-329 328 0
329 -325 -326 -327 -328 0
-330 152 -153 0
-330 -152 153 0
330 152 153 0
330 -152 -153 0
329 331 0
-330 331 0
-331 -329 330 0
-332 5 -1 0
-332 -5 1 0
332 5 1 0
332 -5 -1 0
-333 6 -2 0
-333 -6 2 0
333 6 2 0
333 -6 -2 0
-334 7 -3 0
-334 -7 3 0
334 7 3 0
334 -7 -3 0
-335 8 -4 0
-335 -8 4 0
335 8 4 0
335 -8 -4 0
-336 332 0
-336 333 0
-336 334 0
-336 335 0
336 -332 -333 -334 -335 0
-337 160 -161 0
-337 -160 161 0
337 160 161 0
337 -160 -161 0
336 338 0
-337 338 0
-338 -336 337 0
-339 226 0
-339 233 0
-339 240 0
-339 247 0
-339 254 0
-339 261 0
-339 268 0
-339 275 0
-339 282 0
-339 289 0
-339 296 0
-339 303 0
-339 310 0
-339 317 0
-339 324 0
-339 331 0
-339 338 0
339 -226 -233 -240 -247 -254 -261 -268 -275 -282 -289 -296 -303 -310 -317 -324 -331 -338 0
219 0
339 0
